NAME : A-n8-k3
COMMENT : (Grupo B, No of trucks: 3, Optimal value: 401.53)
TYPE : CVRP
DIMENSION : 8
EDGE_WEIGHT_TYPE : EUC_2D 
CAPACITY : 10
NODE_COORD_SECTION 
 1 50 50
 2 20 80
 3 30 90
 4 15 60
 5 80 70
 6 90 50
 7 75 20
 8 40 15
DEMAND_SECTION 
1 0 
2 4 
3 3 
4 5 
5 4 
6 6 
7 3 
8 5 
DEPOT_SECTION 
 1  
 -1  
EOF 
